c strEdges: 125  randomEdges: 504 
c degrees:  1  2 
c girth: Inf max: -43.604516  
c Hgirth mixed MAXCUT instance
c generated from an undirected graph
c to solve unweighted MaxCut
p cnf 140 1258
100 60 0
-100 -60 0
82 39 0
-82 -39 0
112 53 0
-112 -53 0
112 47 0
-112 -47 0
87 109 0
-87 -109 0
87 85 0
-87 -85 0
45 73 0
-45 -73 0
45 135 0
-45 -135 0
57 11 0
-57 -11 0
57 6 0
-57 -6 0
10 56 0
-10 -56 0
10 91 0
-10 -91 0
106 21 0
-106 -21 0
106 117 0
-106 -117 0
42 75 0
-42 -75 0
18 119 0
-18 -119 0
18 22 0
-18 -22 0
77 135 0
-77 -135 0
77 129 0
-77 -129 0
12 102 0
-12 -102 0
65 89 0
-65 -89 0
15 50 0
-15 -50 0
15 13 0
-15 -13 0
108 46 0
-108 -46 0
108 26 0
-108 -26 0
40 136 0
-40 -136 0
40 103 0
-40 -103 0
121 67 0
-121 -67 0
121 3 0
-121 -3 0
32 78 0
-32 -78 0
32 31 0
-32 -31 0
76 134 0
-76 -134 0
76 128 0
-76 -128 0
33 117 0
-33 -117 0
62 128 0
-62 -128 0
62 75 0
-62 -75 0
137 111 0
-137 -111 0
137 102 0
-137 -102 0
118 116 0
-118 -116 0
118 64 0
-118 -64 0
30 3 0
-30 -3 0
30 131 0
-30 -131 0
125 127 0
-125 -127 0
125 73 0
-125 -73 0
126 64 0
-126 -64 0
126 134 0
-126 -134 0
120 22 0
-120 -22 0
120 8 0
-120 -8 0
71 47 0
-71 -47 0
71 93 0
-71 -93 0
28 29 0
-28 -29 0
81 61 0
-81 -61 0
81 139 0
-81 -139 0
80 68 0
-80 -68 0
80 111 0
-80 -111 0
9 1 0
-9 -1 0
9 130 0
-9 -130 0
133 139 0
-133 -139 0
7 8 0
-7 -8 0
23 98 0
-23 -98 0
24 59 0
-24 -59 0
24 124 0
-24 -124 0
132 51 0
-132 -51 0
132 110 0
-132 -110 0
55 14 0
-55 -14 0
55 29 0
-55 -29 0
114 44 0
-114 -44 0
17 85 0
-17 -85 0
17 1 0
-17 -1 0
27 122 0
-27 -122 0
27 4 0
-27 -4 0
63 93 0
-63 -93 0
63 44 0
-63 -44 0
43 94 0
-43 -94 0
43 68 0
-43 -68 0
113 138 0
-113 -138 0
113 69 0
-113 -69 0
79 48 0
-79 -48 0
38 70 0
-38 -70 0
38 37 0
-38 -37 0
35 124 0
-35 -124 0
35 70 0
-35 -70 0
123 131 0
-123 -131 0
123 115 0
-123 -115 0
101 83 0
-101 -83 0
101 67 0
-101 -67 0
2 13 0
-2 -13 0
2 99 0
-2 -99 0
90 88 0
-90 -88 0
90 89 0
-90 -89 0
95 66 0
-95 -66 0
95 60 0
-95 -60 0
25 72 0
-25 -72 0
25 97 0
-25 -97 0
105 36 0
-105 -36 0
105 59 0
-105 -59 0
41 96 0
-41 -96 0
41 94 0
-41 -94 0
74 37 0
-74 -37 0
5 129 0
-5 -129 0
5 50 0
-5 -50 0
104 110 0
-104 -110 0
104 88 0
-104 -88 0
52 130 0
-52 -130 0
52 48 0
-52 -48 0
54 69 0
-54 -69 0
54 51 0
-54 -51 0
84 4 0
-84 -4 0
84 72 0
-84 -72 0
49 103 0
-49 -103 0
58 140 0
-58 -140 0
58 83 0
-58 -83 0
107 115 0
-107 -115 0
34 26 0
-34 -26 0
34 53 0
-34 -53 0
19 99 0
-19 -99 0
19 11 0
-19 -11 0
16 6 0
-16 -6 0
16 66 0
-16 -66 0
86 97 0
-86 -97 0
86 46 0
-86 -46 0
92 91 0
-92 -91 0
92 98 0
-92 -98 0
20 31 0
-20 -31 0
20 96 0
-20 -96 0
54 6 0
-54 -6 0
33 48 0
-33 -48 0
138 4 0
-138 -4 0
132 93 0
-132 -93 0
117 31 0
-117 -31 0
27 38 0
-27 -38 0
112 101 0
-112 -101 0
108 124 0
-108 -124 0
47 31 0
-47 -31 0
40 101 0
-40 -101 0
63 20 0
-63 -20 0
108 44 0
-108 -44 0
33 52 0
-33 -52 0
121 95 0
-121 -95 0
42 48 0
-42 -48 0
79 89 0
-79 -89 0
35 105 0
-35 -105 0
10 98 0
-10 -98 0
23 72 0
-23 -72 0
72 6 0
-72 -6 0
36 140 0
-36 -140 0
102 29 0
-102 -29 0
9 75 0
-9 -75 0
101 6 0
-101 -6 0
118 107 0
-118 -107 0
113 34 0
-113 -34 0
82 8 0
-82 -8 0
39 83 0
-39 -83 0
101 74 0
-101 -74 0
61 131 0
-61 -131 0
105 69 0
-105 -69 0
7 124 0
-7 -124 0
18 102 0
-18 -102 0
106 14 0
-106 -14 0
126 89 0
-126 -89 0
77 72 0
-77 -72 0
118 110 0
-118 -110 0
111 70 0
-111 -70 0
17 93 0
-17 -93 0
89 31 0
-89 -31 0
20 72 0
-20 -72 0
66 103 0
-66 -103 0
16 122 0
-16 -122 0
57 55 0
-57 -55 0
120 84 0
-120 -84 0
40 84 0
-40 -84 0
134 91 0
-134 -91 0
76 120 0
-76 -120 0
86 1 0
-86 -1 0
57 15 0
-57 -15 0
57 36 0
-57 -36 0
12 71 0
-12 -71 0
139 51 0
-139 -51 0
59 51 0
-59 -51 0
46 97 0
-46 -97 0
48 88 0
-48 -88 0
125 24 0
-125 -24 0
52 127 0
-52 -127 0
28 53 0
-28 -53 0
63 110 0
-63 -110 0
137 1 0
-137 -1 0
9 140 0
-9 -140 0
107 59 0
-107 -59 0
14 88 0
-14 -88 0
45 20 0
-45 -20 0
45 1 0
-45 -1 0
28 122 0
-28 -122 0
133 138 0
-133 -138 0
125 128 0
-125 -128 0
80 34 0
-80 -34 0
19 134 0
-19 -134 0
77 23 0
-77 -23 0
72 110 0
-72 -110 0
95 5 0
-95 -5 0
120 63 0
-120 -63 0
16 98 0
-16 -98 0
49 72 0
-49 -72 0
112 23 0
-112 -23 0
95 37 0
-95 -37 0
73 8 0
-73 -8 0
85 93 0
-85 -93 0
34 59 0
-34 -59 0
89 69 0
-89 -69 0
12 117 0
-12 -117 0
11 1 0
-11 -1 0
71 20 0
-71 -20 0
127 103 0
-127 -103 0
87 25 0
-87 -25 0
48 72 0
-48 -72 0
10 66 0
-10 -66 0
100 66 0
-100 -66 0
140 26 0
-140 -26 0
106 108 0
-106 -108 0
30 122 0
-30 -122 0
60 115 0
-60 -115 0
131 4 0
-131 -4 0
111 139 0
-111 -139 0
56 97 0
-56 -97 0
57 3 0
-57 -3 0
109 136 0
-109 -136 0
49 13 0
-49 -13 0
121 23 0
-121 -23 0
107 11 0
-107 -11 0
130 91 0
-130 -91 0
133 58 0
-133 -58 0
17 20 0
-17 -20 0
92 64 0
-92 -64 0
62 2 0
-62 -2 0
10 30 0
-10 -30 0
87 45 0
-87 -45 0
72 31 0
-72 -31 0
8 97 0
-8 -97 0
79 98 0
-79 -98 0
60 96 0
-60 -96 0
119 85 0
-119 -85 0
126 21 0
-126 -21 0
122 130 0
-122 -130 0
28 114 0
-28 -114 0
39 96 0
-39 -96 0
85 4 0
-85 -4 0
73 111 0
-73 -111 0
29 122 0
-29 -122 0
34 135 0
-34 -135 0
17 67 0
-17 -67 0
53 85 0
-53 -85 0
15 48 0
-15 -48 0
121 129 0
-121 -129 0
10 35 0
-10 -35 0
38 94 0
-38 -94 0
120 140 0
-120 -140 0
93 115 0
-93 -115 0
48 31 0
-48 -31 0
116 3 0
-116 -3 0
60 48 0
-60 -48 0
82 17 0
-82 -17 0
64 22 0
-64 -22 0
95 140 0
-95 -140 0
61 94 0
-61 -94 0
77 119 0
-77 -119 0
77 3 0
-77 -3 0
41 8 0
-41 -8 0
60 4 0
-60 -4 0
136 85 0
-136 -85 0
80 105 0
-80 -105 0
82 59 0
-82 -59 0
64 31 0
-64 -31 0
33 131 0
-33 -131 0
76 74 0
-76 -74 0
18 5 0
-18 -5 0
2 70 0
-2 -70 0
54 96 0
-54 -96 0
42 36 0
-42 -36 0
42 20 0
-42 -20 0
55 101 0
-55 -101 0
20 94 0
-20 -94 0
102 131 0
-102 -131 0
10 132 0
-10 -132 0
84 99 0
-84 -99 0
116 59 0
-116 -59 0
43 64 0
-43 -64 0
44 13 0
-44 -13 0
59 91 0
-59 -91 0
57 94 0
-57 -94 0
87 64 0
-87 -64 0
107 31 0
-107 -31 0
106 124 0
-106 -124 0
118 44 0
-118 -44 0
113 29 0
-113 -29 0
108 90 0
-108 -90 0
23 67 0
-23 -67 0
5 16 0
-5 -16 0
27 31 0
-27 -31 0
2 66 0
-2 -66 0
9 4 0
-9 -4 0
74 83 0
-74 -83 0
73 103 0
-73 -103 0
132 111 0
-132 -111 0
63 41 0
-63 -41 0
80 70 0
-80 -70 0
108 136 0
-108 -136 0
125 71 0
-125 -71 0
43 14 0
-43 -14 0
7 20 0
-7 -20 0
136 134 0
-136 -134 0
87 119 0
-87 -119 0
68 122 0
-68 -122 0
19 31 0
-19 -31 0
35 93 0
-35 -93 0
12 109 0
-12 -109 0
57 25 0
-57 -25 0
42 39 0
-42 -39 0
95 115 0
-95 -115 0
139 72 0
-139 -72 0
23 19 0
-23 -19 0
65 83 0
-65 -83 0
33 135 0
-33 -135 0
101 128 0
-101 -128 0
40 94 0
-40 -94 0
16 8 0
-16 -8 0
9 51 0
-9 -51 0
75 22 0
-75 -22 0
86 138 0
-86 -138 0
21 134 0
-21 -134 0
11 83 0
-11 -83 0
58 122 0
-58 -122 0
117 91 0
-117 -91 0
2 16 0
-2 -16 0
86 124 0
-86 -124 0
65 16 0
-65 -16 0
45 41 0
-45 -41 0
30 46 0
-30 -46 0
100 37 0
-100 -37 0
112 60 0
-112 -60 0
17 21 0
-17 -21 0
7 41 0
-7 -41 0
87 121 0
-87 -121 0
137 84 0
-137 -84 0
33 5 0
-33 -5 0
95 127 0
-95 -127 0
17 68 0
-17 -68 0
121 131 0
-121 -131 0
28 4 0
-28 -4 0
17 129 0
-17 -129 0
114 5 0
-114 -5 0
38 51 0
-38 -51 0
62 115 0
-62 -115 0
38 58 0
-38 -58 0
87 137 0
-87 -137 0
61 68 0
-61 -68 0
7 92 0
-7 -92 0
92 116 0
-92 -116 0
90 78 0
-90 -78 0
36 31 0
-36 -31 0
19 39 0
-19 -39 0
42 99 0
-42 -99 0
10 19 0
-10 -19 0
57 74 0
-57 -74 0
108 131 0
-108 -131 0
83 115 0
-83 -115 0
133 3 0
-133 -3 0
53 4 0
-53 -4 0
87 61 0
-87 -61 0
114 103 0
-114 -103 0
2 56 0
-2 -56 0
118 138 0
-118 -138 0
95 78 0
-95 -78 0
27 52 0
-27 -52 0
7 47 0
-7 -47 0
128 51 0
-128 -51 0
35 67 0
-35 -67 0
42 116 0
-42 -116 0
134 85 0
-134 -85 0
65 24 0
-65 -24 0
64 122 0
-64 -122 0
45 85 0
-45 -85 0
62 85 0
-62 -85 0
53 48 0
-53 -48 0
76 136 0
-76 -136 0
106 9 0
-106 -9 0
22 13 0
-22 -13 0
24 6 0
-24 -6 0
32 66 0
-32 -66 0
137 104 0
-137 -104 0
25 22 0
-25 -22 0
42 80 0
-42 -80 0
30 24 0
-30 -24 0
125 78 0
-125 -78 0
19 119 0
-19 -119 0
16 119 0
-16 -119 0
73 64 0
-73 -64 0
136 140 0
-136 -140 0
17 96 0
-17 -96 0
120 11 0
-120 -11 0
15 119 0
-15 -119 0
10 139 0
-10 -139 0
3 140 0
-3 -140 0
35 14 0
-35 -14 0
81 68 0
-81 -68 0
10 53 0
-10 -53 0
27 34 0
-27 -34 0
57 83 0
-57 -83 0
112 117 0
-112 -117 0
20 136 0
-20 -136 0
122 97 0
-122 -97 0
80 47 0
-80 -47 0
86 20 0
-86 -20 0
118 52 0
-118 -52 0
125 107 0
-125 -107 0
3 68 0
-3 -68 0
63 85 0
-63 -85 0
17 78 0
-17 -78 0
28 70 0
-28 -70 0
126 102 0
-126 -102 0
86 135 0
-86 -135 0
86 115 0
-86 -115 0
114 22 0
-114 -22 0
60 134 0
-60 -134 0
17 25 0
-17 -25 0
108 55 0
-108 -55 0
15 58 0
-15 -58 0
88 96 0
-88 -96 0
2 95 0
-2 -95 0
52 73 0
-52 -73 0
124 110 0
-124 -110 0
16 75 0
-16 -75 0
101 117 0
-101 -117 0
33 29 0
-33 -29 0
82 29 0
-82 -29 0
28 22 0
-28 -22 0
45 38 0
-45 -38 0
12 47 0
-12 -47 0
24 26 0
-24 -26 0
65 73 0
-65 -73 0
48 69 0
-48 -69 0
45 105 0
-45 -105 0
71 66 0
-71 -66 0
55 89 0
-55 -89 0
120 35 0
-120 -35 0
45 48 0
-45 -48 0
127 110 0
-127 -110 0
64 72 0
-64 -72 0
14 94 0
-14 -94 0
133 104 0
-133 -104 0
62 27 0
-62 -27 0
125 27 0
-125 -27 0
5 39 0
-5 -39 0
45 125 0
-45 -125 0
28 1 0
-28 -1 0
132 86 0
-132 -86 0
100 68 0
-100 -68 0
38 103 0
-38 -103 0
30 43 0
-30 -43 0
78 1 0
-78 -1 0
54 46 0
-54 -46 0
87 12 0
-87 -12 0
87 96 0
-87 -96 0
30 123 0
-30 -123 0
114 91 0
-114 -91 0
65 13 0
-65 -13 0
133 52 0
-133 -52 0
116 70 0
-116 -70 0
95 14 0
-95 -14 0
15 97 0
-15 -97 0
55 111 0
-55 -111 0
132 26 0
-132 -26 0
118 14 0
-118 -14 0
27 66 0
-27 -66 0
10 17 0
-10 -17 0
40 64 0
-40 -64 0
106 17 0
-106 -17 0
77 9 0
-77 -9 0
79 13 0
-79 -13 0
23 11 0
-23 -11 0
54 8 0
-54 -8 0
100 15 0
-100 -15 0
126 24 0
-126 -24 0
52 139 0
-52 -139 0
107 128 0
-107 -128 0
50 51 0
-50 -51 0
134 36 0
-134 -36 0
73 89 0
-73 -89 0
55 68 0
-55 -68 0
84 131 0
-84 -131 0
20 61 0
-20 -61 0
84 56 0
-84 -56 0
15 131 0
-15 -131 0
108 35 0
-108 -35 0
23 107 0
-23 -107 0
46 70 0
-46 -70 0
85 13 0
-85 -13 0
82 24 0
-82 -24 0
133 89 0
-133 -89 0
45 139 0
-45 -139 0
79 4 0
-79 -4 0
87 32 0
-87 -32 0
132 14 0
-132 -14 0
43 117 0
-43 -117 0
120 69 0
-120 -69 0
137 92 0
-137 -92 0
7 36 0
-7 -36 0
38 73 0
-38 -73 0
125 64 0
-125 -64 0
12 139 0
-12 -139 0
41 103 0
-41 -103 0
38 8 0
-38 -8 0
71 91 0
-71 -91 0
37 130 0
-37 -130 0
32 109 0
-32 -109 0
2 88 0
-2 -88 0
107 75 0
-107 -75 0
100 117 0
-100 -117 0
63 79 0
-63 -79 0
62 16 0
-62 -16 0
94 129 0
-94 -129 0
9 116 0
-9 -116 0
96 129 0
-96 -129 0
77 78 0
-77 -78 0
124 97 0
-124 -97 0
76 130 0
-76 -130 0
3 61 0
-3 -61 0
54 34 0
-54 -34 0
5 59 0
-5 -59 0
134 111 0
-134 -111 0
42 78 0
-42 -78 0
82 86 0
-82 -86 0
54 70 0
-54 -70 0
60 22 0
-60 -22 0
52 11 0
-52 -11 0
92 119 0
-92 -119 0
55 3 0
-55 -3 0
49 3 0
-49 -3 0
57 135 0
-57 -135 0
102 128 0
-102 -128 0
62 38 0
-62 -38 0
82 36 0
-82 -36 0
87 118 0
-87 -118 0
5 107 0
-5 -107 0
106 95 0
-106 -95 0
100 22 0
-100 -22 0
95 46 0
-95 -46 0
100 127 0
-100 -127 0
24 84 0
-24 -84 0
125 8 0
-125 -8 0
18 94 0
-18 -94 0
84 78 0
-84 -78 0
77 32 0
-77 -32 0
76 47 0
-76 -47 0
101 78 0
-101 -78 0
58 119 0
-58 -119 0
25 13 0
-25 -13 0
54 134 0
-54 -134 0
11 127 0
-11 -127 0
10 95 0
-10 -95 0
79 122 0
-79 -122 0
84 98 0
-84 -98 0
29 83 0
-29 -83 0
119 37 0
-119 -37 0
55 86 0
-55 -86 0
49 110 0
-49 -110 0
80 27 0
-80 -27 0
2 85 0
-2 -85 0
80 139 0
-80 -139 0
111 66 0
-111 -66 0
19 14 0
-19 -14 0
139 66 0
-139 -66 0
45 59 0
-45 -59 0
86 96 0
-86 -96 0
20 13 0
-20 -13 0
77 14 0
-77 -14 0
65 134 0
-65 -134 0
132 63 0
-132 -63 0
126 129 0
-126 -129 0
42 109 0
-42 -109 0
107 96 0
-107 -96 0
127 138 0
-127 -138 0
46 111 0
-46 -111 0
53 111 0
-53 -111 0
76 11 0
-76 -11 0
123 41 0
-123 -41 0
45 80 0
-45 -80 0
136 36 0
-136 -36 0
125 7 0
-125 -7 0
27 1 0
-27 -1 0
8 85 0
-8 -85 0
57 43 0
-57 -43 0
132 119 0
-132 -119 0
42 58 0
-42 -58 0
45 120 0
-45 -120 0
74 67 0
-74 -67 0
21 135 0
-21 -135 0
100 133 0
-100 -133 0
42 56 0
-42 -56 0
18 62 0
-18 -62 0
15 99 0
-15 -99 0
100 34 0
-100 -34 0
24 69 0
-24 -69 0
128 22 0
-128 -22 0
79 29 0
-79 -29 0
53 135 0
-53 -135 0
18 6 0
-18 -6 0
79 64 0
-79 -64 0
34 128 0
-34 -128 0
77 35 0
-77 -35 0
71 85 0
-71 -85 0
83 4 0
-83 -4 0
2 41 0
-2 -41 0
71 34 0
-71 -34 0
94 69 0
-94 -69 0
119 94 0
-119 -94 0
100 114 0
-100 -114 0
58 19 0
-58 -19 0
10 113 0
-10 -113 0
86 47 0
-86 -47 0
28 69 0
-28 -69 0
99 6 0
-99 -6 0
73 26 0
-73 -26 0
106 54 0
-106 -54 0
5 109 0
-5 -109 0
63 13 0
-63 -13 0
52 119 0
-52 -119 0
49 14 0
-49 -14 0
28 13 0
-28 -13 0
126 37 0
-126 -37 0
137 61 0
-137 -61 0
